nr_shelves = 10;
shelves = [11, 5, 10];

Product = P(1..3);

product_size = 
[|       Length: Width: Height: 
 | P(1):      5,     2,      3
 | P(2):      3,     3,      4
 | P(3):      5,     3,      4
 |];

nr_products = [7, 7, 11];
